
50
73648

1566 2418
1044 1612
3770 7680
2262 4608
1827 2821
377 768
1566 2418
2088 3224
754 1536
2262 4608
783 1209
2639 5376
1305 2015
2088 3224
1044 1612
3016 6144
754 1536
783 1209
261 403
522 806
1885 3840
3770 7680
3770 7680
783 1209
522 806
2088 3224
261 403
1131 2304
2349 3627
754 1536
3016 6144
2088 3224
2610 4030
2610 4030
2262 4608
522 806
1885 3840
1131 2304
1566 2418
1508 3072
1566 2418
1566 2418
522 806
2262 4608
522 806
3393 6912
1827 2821
783 1209
754 1536
2088 3224
